WARNING: for repeatability, setting FPU to use double precision
============================[ Problem Statistics ]=============================
|                                                                             |
|  Number of variables:            50                                         |
|  Number of clauses:             218                                         |
|  Parse time:                   0.00 s                                       |
|                                                                             |
============================[ Search Statistics ]==============================
| Conflicts |          ORIGINAL         |          LEARNT          | Progress |
|           |    Vars  Clauses Literals |    Limit  Clauses Lit/Cl |          |
===============================================================================
===============================================================================
restarts              : 1
conflicts             : 39             (27562 /sec)
decisions             : 47             (0.00 % random) (33216 /sec)
propagations          : 564            (398587 /sec)
conflict literals     : 125            (19.87 % deleted)
Memory used           : 20.00 MB
CPU time              : 0.001415 s

UNSATISFIABLE
